Bi  O  V                                
1.0
       15.5867996216         0.0000000000         0.0000000000
       -0.1021422690        15.2801590240         0.0000000000
        0.0000000000         0.0000000000        11.7045001984
   Bi    O    V
   36  144   36
Cartesian
     2.589287281         1.273344994        10.231802940
     2.555239677         6.366731167        10.231802940
     2.521192312        11.460118294        10.231802940
     7.784886837         1.273344994        10.231802940
     7.750839710         6.366731167        10.231802940
     7.716792107        11.460118294        10.231802940
    12.980487823         1.273344994        10.231802940
    12.946439743         6.366731167        10.231802940
    12.912392616        11.460118294        10.231802940
     2.572264910         3.820039511         1.472723484
     2.538217545         8.913425446         1.472723484
     2.504170179        14.006813049         1.472723484
     7.767865181         3.820039511         1.472723484
     7.733817577         8.913425446         1.472723484
     7.699770451        14.006813049         1.472723484
    12.963464737         3.820039511         1.472723484
    12.929417610         8.913425446         1.472723484
    12.895369530        14.006813049         1.472723484
    -0.008511868         1.273348570         7.324905872
    -0.042559292         6.366734982         7.324905872
    -0.076606713        11.460121155         7.324905872
     5.187088013         1.273348570         7.324905872
     5.153040886         6.366734982         7.324905872
     5.118993282        11.460121155         7.324905872
    10.382688522         1.273348570         7.324905872
    10.348640442         6.366734982         7.324905872
    10.314593315        11.460121155         7.324905872
    -0.025535565         3.820039511         4.379588127
    -0.059582986         8.913425446         4.379588127
    -0.093630411        14.006813049         4.379588127
     5.170064449         3.820039511         4.379588127
     5.136016846         8.913425446         4.379588127
     5.101969719        14.006813049         4.379588127
    10.365664482         3.820039511         4.379588127
    10.331617355         8.913425446         4.379588127
    10.297569275        14.006813049         4.379588127
     3.887365818         1.984108329         0.544645131
     3.853318453         7.077495098         0.544645131
     3.819270849        12.170881271         0.544645131
     9.082965851         1.984108329         0.544645131
     9.048917770         7.077495098         0.544645131
     9.014870644        12.170881271         0.544645131
    14.278566360         1.984108329         0.544645131
    14.244518280         7.077495098         0.544645131
    14.210471153        12.170881271         0.544645131
     3.307228565         2.559894800         3.461762428
     3.273181200         7.653281212         3.461762428
     3.239133835        12.746667862         3.461762428
     8.502828598         2.559894800         3.461762428
     8.468780518         7.653281212         3.461762428
     8.434733391        12.746667862         3.461762428
    13.698429108         2.559894800         3.461762428
    13.664381027         7.653281212         3.461762428
    13.630333900        12.746667862         3.461762428
     1.272670150         4.530802250         6.396985531
     1.238622785         9.624188423         6.396985531
     1.204575300        14.717575073         6.396985531
     6.468269825         4.530802250         6.396985531
     6.434222221         9.624188423         6.396985531
     6.400175095        14.717575073         6.396985531
    11.663869858         4.530802250         6.396985531
    11.629822731         9.624188423         6.396985531
    11.595774651        14.717575073         6.396985531
     0.726562262         0.013362994         9.313842773
     0.692514837         5.106749058         9.313842773
     0.658467412        10.200136185         9.313842773
     5.922162533         0.013362994         9.313842773
     5.888114929         5.106749058         9.313842773
     5.854067326        10.200136185         9.313842773
    11.117761612         0.013362994         9.313842773
    11.083714485         5.106749058         9.313842773
    11.049667358        10.200136185         9.313842773
     1.769203901        15.266957283         3.461760283
     1.837298751         5.080184460         3.461760283
     1.803251266        10.173571587         3.461760283
     6.964803696        15.266957283         3.461760283
     7.032898426         5.080184460         3.461760283
     6.998851299        10.173571587         3.461760283
    12.160404205        15.266957283         3.461760283
    12.228498459         5.080184460         3.461760283
    12.194451332        10.173571587         3.461760283
     0.709515095         2.560004950         2.390590191
     0.675467670         7.653391361         2.390590191
     0.641420245        12.746778488         2.390590191
     5.905114651         2.560004950         2.390590191
     5.871067047         7.653391361         2.390590191
     5.837019920        12.746778488         2.390590191
    11.100715637         2.560004950         2.390590191
    11.066668510         7.653391361         2.390590191
    11.032620430        12.746778488         2.390590191
     4.452012539         2.533331871         9.313841820
     4.417964935         7.626718521         9.313841820
     4.383917809        12.720104218         9.313841820
     9.647612572         2.533331871         9.313841820
     9.613565445         7.626718521         9.313841820
     9.579517365        12.720104218         9.313841820
    14.843212128         2.533331871         9.313841820
    14.809165001         7.626718521         9.313841820
    14.775116920        12.720104218         9.313841820
     1.274248838         3.109218597        11.159899712
     1.240201473         8.202604294        11.159899712
     1.206153989        13.295991898        11.159899712
     6.469849110         3.109218597        11.159899712
     6.435801506         8.202604294        11.159899712
     6.401754379        13.295991898        11.159899712
    11.665448189         3.109218597        11.159899712
    11.631401062         8.202604294        11.159899712
    11.597353935        13.295991898        11.159899712
     1.854338050         2.533488035         8.242738724
     1.820290685         7.626874447         8.242738724
     1.786243200        12.720261574         8.242738724
     7.049938202         2.533488035         8.242738724
     7.015890598         7.626874447         8.242738724
     6.981843472        12.720261574         8.242738724
    12.245538712         2.533488035         8.242738724
    12.211491585         7.626874447         8.242738724
    12.177443504        12.720261574         8.242738724
     3.888882399         0.562583566         5.307534695
     3.854834795         5.655970097         5.307534695
     3.820787430        10.749356270         5.307534695
     9.084483147         0.562583566         5.307534695
     9.050435066         5.655970097         5.307534695
     9.016387939        10.749356270         5.307534695
    14.280082703         0.562583566         5.307534695
    14.246034622         5.655970097         5.307534695
    14.211987495        10.749356270         5.307534695
     4.366919041        15.266844749         2.390588522
     4.435013771         5.080071449         2.390588522
     4.400966167        10.173458099         2.390588522
     9.562518120        15.266844749         2.390588522
     9.630613327         5.080071449         2.390588522
     9.596566200        10.173458099         2.390588522
    14.758118629        15.266844749         2.390588522
    14.826213837         5.080071449         2.390588522
    14.792166710        10.173458099         2.390588522
     3.870277166         4.530857563        11.159899712
     3.836229563         9.624243736        11.159899712
     3.802182198        14.717630386        11.159899712
     9.065877914         4.530857563        11.159899712
     9.031829834         9.624243736        11.159899712
     8.997782707        14.717630386        11.159899712
    14.261477470         4.530857563        11.159899712
    14.227429390         9.624243736        11.159899712
    14.193382263        14.717630386        11.159899712
     3.324238539         0.013204859         8.242740631
     3.290191174         5.106591225         8.242740631
     3.256143570        10.199977875         8.242740631
     8.519837379         0.013204859         8.242740631
     8.485790253         5.106591225         8.242740631
     8.451743126        10.199977875         8.242740631
    13.715437889         0.013204859         8.242740631
    13.681390762         5.106591225         8.242740631
    13.647343636        10.199977875         8.242740631
     1.289689302         1.984108806         5.307533741
     1.255641818         7.077495098         5.307533741
     1.221594453        12.170882225         5.307533741
     6.485289097         1.984108806         5.307533741
     6.451241970         7.077495098         5.307533741
     6.417194366        12.170882225         5.307533741
    11.680889130         1.984108806         5.307533741
    11.646841049         7.077495098         5.307533741
    11.612793922        12.170882225         5.307533741
     3.871863842         3.109276772         6.396986961
     3.837816477         8.202663422         6.396986961
     3.803769112        13.296050072         6.396986961
     9.067463875         3.109276772         6.396986961
     9.033416748         8.202663422         6.396986961
     8.999368668        13.296050072         6.396986961
    14.263064384         3.109276772         6.396986961
    14.229017258         8.202663422         6.396986961
    14.194969177        13.296050072         6.396986961
     1.291211247         0.562587321         0.544645667
     1.257163882         5.655973434         0.544645667
     1.223116398        10.749360085         0.544645667
     6.486811161         0.562587321         0.544645667
     6.452764034         5.655973434         0.544645667
     6.418716431        10.749360085         0.544645667
    11.682411194         0.562587321         0.544645667
    11.648363113         5.655973434         0.544645667
    11.614315987        10.749360085         0.544645667
    -0.008511852         1.273346186         1.458204508
    -0.042559277         6.366732597         1.458204508
    -0.076606698        11.460119247         1.458204508
     5.187088013         1.273346186         1.458204508
     5.153040886         6.366732597         1.458204508
     5.118993282        11.460119247         1.458204508
    10.382688522         1.273346186         1.458204508
    10.348640442         6.366732597         1.458204508
    10.314593315        11.460119247         1.458204508
     2.572268963         3.820045233         7.310405254
     2.538221598         8.913432121         7.310405254
     2.504173994        14.006817818         7.310405254
     7.767868996         3.820045233         7.310405254
     7.733821392         8.913432121         7.310405254
     7.699774265        14.006817818         7.310405254
    12.963469505         3.820045233         7.310405254
    12.929422379         8.913432121         7.310405254
    12.895374298        14.006817818         7.310405254
    -0.025535556         3.820038080        10.246288300
    -0.059582982         8.913424492        10.246288300
    -0.093630403        14.006811142        10.246288300
     5.170063019         3.820038080        10.246288300
     5.136015415         8.913424492        10.246288300
     5.101968288        14.006811142        10.246288300
    10.365661621         3.820038080        10.246288300
    10.331614494         8.913424492        10.246288300
    10.297566414        14.006811142        10.246288300
     2.589287281         1.273346782         4.394086361
     2.555239677         6.366733074         4.394086361
     2.521192312        11.460119247         4.394086361
     7.784886837         1.273346782         4.394086361
     7.750839710         6.366733074         4.394086361
     7.716792107        11.460119247         4.394086361
    12.980487823         1.273346782         4.394086361
    12.946439743         6.366733074         4.394086361
    12.912392616        11.460119247         4.394086361
