@SET PROJECT  p_tio2_
@SET RESFILE  p_tio2_
@SET XYZ   ./intermediate_point.xyz
@SET RESTART 0 
@SET CELL_A 13.869
@SET CELL_B 13.869
@SET CELL_C 14.907
@SET RUNTYPE ENERGY
@SET OT_MINI CG
@SET EPSSCF 1.0E-05


&FORCE_EVAL
  METHOD QS
  &DFT  
     UKS
     BASIS_SET_FILE_NAME  /projects/academic/mdupuis2/pavan/BASIS_SETS/GTH_BASIS_SETS_5-12-10
     POTENTIAL_FILE_NAME  /projects/academic/mdupuis2/pavan/POTENTIALS/GTH_POTENTIALS_5-12-10
     WFN_RESTART_FILE_NAME ./p_tio2_-RESTART.wfn
     CHARGE -1
     MULTIPLICITY 2
     PLUS_U_METHOD LOWDIN
    &MGRID
      CUTOFF 650
      NGRIDS   10
      REL_CUTOFF   60
    &END MGRID
    &QS
       EPS_DEFAULT 1.0E-12
       METHOD GPW
       MAP_CONSISTENT
       EXTRAPOLATION ASPC
       EPS_PGF_ORB 1E-12
    &END QS
     &SCF
       MAX_SCF    500
       EPS_SCF    ${EPSSCF}
       EPS_DIIS 0.5
       SCF_GUESS  RESTART
       &MIXING  T
               METHOD BROYDEN_MIXING
       &END MIXING
       &DIAGONALIZATION
               ALGORITHM STANDARD
       &END
       &OUTER_SCF
         MAX_SCF 500
         EPS_SCF ${EPSSCF}
       &END
       &PRINT
         &RESTART
           &EACH
               QS_SCF 100
           &END
           ADD_LAST NUMERIC
         &END
       &END

     &END SCF

     &XC
        &XC_FUNCTIONAL PBE
        &END XC_FUNCTIONAL
     &END XC
   &PRINT
    &MULLIKEN ON
    &END
    &LOWDIN OFF
    &END
    &XRAY_DIFFRACTION_SPECTRUM OFF
    &END
    &PDOS OFF
      FILENAME PDOS-TMAA
      NLUMO -1
    &END PDOS
    &E_DENSITY_CUBE OFF
    &END
    &MO_CUBES                 ! Controls which MOs are written to cube-files.
      WRITE_CUBE FALSE
    &END MO_CUBES
    &TOT_DENSITY_CUBE OFF
    &END TOT_DENSITY_CUBE
   &END PRINT
  &END DFT

  &SUBSYS
    &CELL
   A   ${CELL_A}        0.0000000000        0.0000000000
   B   0.0000000000       ${CELL_B}      0.0000000000
   C   0.0000000000        0.0000000000      ${CELL_C}
    &END CELL
    &TOPOLOGY
      CONNECTIVITY OFF
      COORD_FILE_NAME ${XYZ}
      COORDINATE      xyz
    &END TOPOLOGY

   &KIND Ti
      ELEMENT Ti
      BASIS_SET DZVP-MOLOPT-SR-GTH
      POTENTIAL GTH-PBE-q12
      &DFT_PLUS_U
         L 2
         U_MINUS_J 0.1469973016  #4 eV, conv factor = 27.2107
      &END DFT_PLUS_U
    &END KIND
    &KIND O
      BASIS_SET DZVP-MOLOPT-GTH
      POTENTIAL GTH-PBE-q6
    &END KIND
    
  &END SUBSYS
  &PROPERTIES
          &MOA
                  NFRG 3
                  LFRG 1 1 2
                  IFUNO .TRUE.
                  IFRG 40 58 203 204
                  NOMOAA 1..1080
                  NOMOA 1..1080
                  !&MO_CUBES
                  !   MO_LIST 26
                  !&END
          &END MOA
  &END PROPERTIES

  STRESS_TENSOR ANALYTICAL
&END FORCE_EVAL

&GLOBAL
  PROJECT ${PROJECT}
  RUN_TYPE ${RUNTYPE}
  PRINT_LEVEL MEDIUM
  EXTENDED_FFT_LENGTHS 
  FLUSH_SHOULD_FLUSH T   
&END GLOBAL

@if ${RESTART} == 1
&EXT_RESTART
  RESTART_FILE_NAME ${PROJECT}-1.restart
  RESTART_DEFAULT T
&END EXT_RESTART
@endif
