@SET PROJECT  p_fe_
@SET RESFILE  p_fe_
@SET RESFILE0 p_0_
@SET RESFILE1 p_1_
@SET RESTART 0
@SET RUNTYPE ENERGY
@SET EPSSCF 1E-06
@SET XYZ opt_neutral.xyz

&FORCE_EVAL
  METHOD QS
  &DFT  
     UKS
     BASIS_SET_FILE_NAME  /projects/academic/mdupuis2/pavan/BASIS_SETS/GTH_BASIS_SETS_5-12-10
     POTENTIAL_FILE_NAME  /projects/academic/mdupuis2/pavan/POTENTIALS/GTH_POTENTIALS_5-12-10
     !CHARGE 0
    &MGRID
      CUTOFF 650
      NGRIDS   10
      REL_CUTOFF   60
    &END MGRID
    &QS
       EPS_DEFAULT 1.0E-12
       METHOD GPW
       MAP_CONSISTENT
       EXTRAPOLATION ASPC
    &END QS
     &SCF
       MAX_SCF    100 
       EPS_SCF    ${EPSSCF}
       SCF_GUESS  RESTART
       &OT
       &END
       &OUTER_SCF
         MAX_SCF 50
         EPS_SCF ${EPSSCF}
       &END
       &PRINT
         &RESTART
           &EACH
               JUST_ENERGY 1
           &END
           ADD_LAST NUMERIC
         &END
       &END
     &END SCF

     &XC
      &XC_FUNCTIONAL BLYP
      &END XC_FUNCTIONAL
     &END XC
   &PRINT
    &MULLIKEN ON
    &END
   &END PRINT
  &END DFT

  &SUBSYS
    &CELL
      A       14.7248573303         0.0000000000         0.0000000000
      B       -7.3624286652        12.7521005152         0.0000000000
      C        0.0000000000         0.0000000000        13.2674207687
    &END CELL
    &TOPOLOGY
      CONNECTIVITY OFF
      COORD_FILE_NAME ${XYZ}
      COORDINATE      xyz
    &END TOPOLOGY
      &KIND Fe_three_up
      ELEMENT Fe
      &BS
        &ALPHA
           L 2 0
           N 3 4
           NEL 4 -2
        &END
        &BETA
           L 2 0
           N 3 4
           NEL -6 -2
        &END
      &END
      BASIS_SET mod-DZV
      POTENTIAL GTH-BLYP-q16
      &DFT_PLUS_U
         L 2
         U_MINUS_J 0.2205  #6 eV, conv factor = 27.2107
      &END DFT_PLUS_U
   &END KIND

      &KIND Fe_three_down
      ELEMENT Fe
      &BS
        &ALPHA
           L 2 0
           N 3 4
           NEL -6 -2
        &END
        &BETA
           L 2 0
           N 3 4
           NEL 4 -2
        &END
      &END
      BASIS_SET mod-DZV
      POTENTIAL GTH-BLYP-q16
      &DFT_PLUS_U
         L 2
         U_MINUS_J 0.2205  #6 eV, conv factor = 27.2107
      &END DFT_PLUS_U
   &END KIND


    &KIND Fe_two_down
      ELEMENT Fe
      &BS
        &ALPHA
           L 2 0
           N 3 4
           NEL -4 -2
        &END
        &BETA
           L 2 0
           N 3 4
           NEL 4 -2
        &END
      &END
      BASIS_SET mod-DZV
      POTENTIAL GTH-BLYP-q16
      &DFT_PLUS_U
         L 2
         U_MINUS_J 0.2205
      &END DFT_PLUS_U
    &END KIND

      &KIND Fe
      ELEMENT Fe
      BASIS_SET mod-DZV
      POTENTIAL GTH-BLYP-q16
      &DFT_PLUS_U
         L 2
         U_MINUS_J 0.2205  #6 eV, conv factor = 27.2107
      &END DFT_PLUS_U
   &END KIND

   &KIND O
      BASIS_SET mod-DZV
      POTENTIAL GTH-BLYP-q6
   &END KIND

   &KIND H
      BASIS_SET mod-DZV
      POTENTIAL GTH-BLYP-q1
   &END KIND
  &END SUBSYS
  &PROPERTIES
          &MOA
                  NFRG 3
                  LFRG 1 1 2
                  IFRG 89 59 188 197 
                  &MO_CUBES
                          MO_LIST 1..19
                  &END
          &END
  &END
  STRESS_TENSOR ANALYTICAL
&END FORCE_EVAL

&GLOBAL
  PROJECT ${PROJECT}
  RUN_TYPE ${RUNTYPE}
  PRINT_LEVEL MEDIUM
  EXTENDED_FFT_LENGTHS 
  FLUSH_SHOULD_FLUSH T   
&END GLOBAL

@if ${RESTART} == 1
&EXT_RESTART
  RESTART_FILE_NAME ${PROJECT}-1.restart
  RESTART_DEFAULT T
&END EXT_RESTART
@endif
