@SET PROJECT  p_tio2_
@SET RESFILE  p_tio2_
@SET XYZ   ./opt0.xyz
@SET RESTART 0 
@SET CELL_A 13.869
@SET CELL_B 13.869
@SET CELL_C 14.907
@SET RUNTYPE GEO_OPT
@SET EPSSCF 1.0E-06


&FORCE_EVAL
  METHOD QS
  &DFT  
     UKS
     BASIS_SET_FILE_NAME  /projects/academic/mdupuis2/pavan/BASIS_SETS/GTH_BASIS_SETS_5-12-10
     POTENTIAL_FILE_NAME  /projects/academic/mdupuis2/pavan/POTENTIALS/GTH_POTENTIALS_5-12-10
     WFN_RESTART_FILE_NAME ./p_tio2_-RESTART.wfn
     CHARGE -1
     MULTIPLICITY 2
     PLUS_U_METHOD MULLIKEN
    &MGRID
      CUTOFF 650
      NGRIDS   10
      REL_CUTOFF   60
    &END MGRID
    &QS
       EPS_DEFAULT 1.0E-12
       METHOD GPW
       MAP_CONSISTENT
       EXTRAPOLATION ASPC
       EPS_PGF_ORB 1E-12
    &END QS
     &SCF
       MAX_SCF    500
       EPS_SCF    ${EPSSCF}
       EPS_DIIS 0.5
       SCF_GUESS  RESTART
       &MIXING  T
               METHOD BROYDEN_MIXING
       &END MIXING
       &DIAGONALIZATION
               ALGORITHM STANDARD
       &END
       &OUTER_SCF
         MAX_SCF 500
         EPS_SCF ${EPSSCF}
       &END
       &PRINT
         &RESTART
           &EACH
               QS_SCF 100
           &END
           ADD_LAST NUMERIC
         &END
       &END

     &END SCF

     &XC
        &XC_FUNCTIONAL PBE
        &END XC_FUNCTIONAL
     &END XC
   &PRINT
    &MULLIKEN ON
    &END
    &LOWDIN OFF
    &END
    &XRAY_DIFFRACTION_SPECTRUM OFF
    &END
    &PDOS OFF
      FILENAME PDOS-TMAA
      NLUMO -1
    &END PDOS
    &E_DENSITY_CUBE OFF
    &END
    &MO_CUBES                 ! Controls which MOs are written to cube-files.
      WRITE_CUBE FALSE
    &END MO_CUBES
    &TOT_DENSITY_CUBE OFF
    &END TOT_DENSITY_CUBE
   &END PRINT
  &END DFT

  &SUBSYS
    &CELL
   A   ${CELL_A}        0.0000000000        0.0000000000
   B   0.0000000000       ${CELL_B}      0.0000000000
   C   0.0000000000        0.0000000000      ${CELL_C}
    &END CELL
    &TOPOLOGY
      CONNECTIVITY OFF
      COORD_FILE_NAME ${XYZ}
      COORDINATE      xyz
    &END TOPOLOGY
       &KIND Tiex
      ELEMENT Ti
      &BS
        &ALPHA
           L 2
           N 3 
           NEL 1 
        &END
        &BETA
           L 2 
           N 3 
           NEL 1 
        &END
      &END
      BASIS_SET SZV-MOLOPT-SR-GTH
      POTENTIAL GTH-PBE-q12
      &DFT_PLUS_U
         L 2
         U_MINUS_J 0.367
      &END DFT_PLUS_U
   &END KIND

   &KIND Ti
      ELEMENT Ti
      BASIS_SET SZV-MOLOPT-SR-GTH
      POTENTIAL GTH-PBE-q12
      &DFT_PLUS_U
         L 2
         U_MINUS_J 0.367
      &END DFT_PLUS_U
    &END KIND
    &KIND O
      BASIS_SET SZV-MOLOPT-GTH
      POTENTIAL GTH-PBE-q6
    &END KIND
    
  &END SUBSYS
  STRESS_TENSOR ANALYTICAL
&END FORCE_EVAL
&MOTION
  &GEO_OPT
    TYPE MINIMIZATION
    MAX_ITER 300
    OPTIMIZER CG
    &CG
            &LINE_SEARCH
                    TYPE 2PNT
            &2PNT
                    LINMIN_GRAD_ONLY .TRUE.
                    MAX_ALLOWED_STEP 2.5E-02
            &END
            &END
    &END
  &END GEO_OPT
&END MOTION

&GLOBAL
  PROJECT ${PROJECT}
  RUN_TYPE ${RUNTYPE}
  PRINT_LEVEL MEDIUM
  EXTENDED_FFT_LENGTHS 
  FLUSH_SHOULD_FLUSH T   
&END GLOBAL

@if ${RESTART} == 1
&EXT_RESTART
  RESTART_FILE_NAME ${PROJECT}-1.restart
  RESTART_DEFAULT T
&END EXT_RESTART
@endif
