@SET PROJECT  p_
@SET RESFILE  p_
@SET RESTART 0 
@SET CELL_A 15
@SET CELL_B 15
@SET CELL_C 15
@SET RUNTYPE ENERGY
@SET EPSSCF 1.0E-07


&FORCE_EVAL
  METHOD QS
  &DFT  
     UKS
     BASIS_SET_FILE_NAME  ./phenoxy.basis
     POTENTIAL_FILE_NAME  ./phenoxy.potential
     WFN_RESTART_FILE_NAME ./${RESFILE}-RESTART.wfn 
    &MGRID
      COMMENSURATE T
      CUTOFF 600
      NGRIDS  5
      REL_CUTOFF 60
    &END MGRID
    &QS
       EPS_DEFAULT 1.0E-14
       METHOD GAPW
       MAP_CONSISTENT
       EXTRAPOLATION ASPC
       EPS_PGF_ORB 1.0E-12
    &END QS
    &SCF
      MAX_SCF    500
      EPS_SCF    ${EPSSCF}
      SCF_GUESS  RESTART
      &MIXING  F
      &END MIXING
      &DIAGONALIZATION
              ALGORITHM STANDARD
      &END
      &OUTER_SCF
        MAX_SCF 1
        EPS_SCF ${EPSSCF}
      &END
      &PRINT
        &RESTART
          &EACH
              QS_SCF 100
          &END
          ADD_LAST NUMERIC
        &END
      &END
    &END SCF
    &POISSON
      PERIODIC NONE
      PSOLVER  WAVELET
    &END POISSON
    &XC                        ! Parametes needed to compute the electronic exchange potential
      &XC_FUNCTIONAL NONE      ! No xc functional
      &END XC_FUNCTIONAL
      &HF                      ! Hartree Fock exchange. In this case is 100% (no fraction specified).
        &INTERACTION_POTENTIAL
                POTENTIAL_TYPE COULOMB
        &END
        &SCREENING             ! Screening of the electronic repulsion up to the given threshold.           
          EPS_SCHWARZ 1E-10  ! Threshold specification
        &END SCREENING
      &END HF
    &END XC

   &PRINT
    &MULLIKEN ON
    &END
    &LOWDIN OFF
    &END
    &XRAY_DIFFRACTION_SPECTRUM OFF
    &END
    &PDOS OFF
      FILENAME PDOS-TMAA
      NLUMO -1
    &END PDOS
    &E_DENSITY_CUBE OFF
    &END
    &MO
           EIGENVALUES
           EIGENVECTORS
           CARTESIAN OFF
           FILENAME ./mos
          &EACH
           QS_SCF 0
          &END EACH
    &END MO
    &AO_MATRICES
          OVERLAP .TRUE.
          FILENAME ./overlapmatrix
          &EACH
           QS_SCF 0
          &END EACH
    &END AO_MATRICES
    &MO_CUBES                 ! Controls which MOs are written to cube-files.
      WRITE_CUBE FALSE
    &END MO_CUBES
    &TOT_DENSITY_CUBE OFF
    &END TOT_DENSITY_CUBE
   &END PRINT
  &END DFT

  &SUBSYS
    &CELL
      PERIODIC NONE
      A   ${CELL_A}        0.0000000000        0.0000000000
      B   0.0000000000       ${CELL_B}      0.0000000000
      C   0.0000000000        0.0000000000      ${CELL_C}
    &END CELL
    &COORD
         C    -0.293    0.089   -1.662
         C    -0.662    1.281   -1.054
         C    -1.284    1.285    0.180
         C    -1.543    0.080    0.819
         C    -1.179   -1.117    0.223
         C    -0.555   -1.105   -1.016
         O    -2.153    0.132    2.026
         H     0.191    0.094   -2.622
         H    -0.464    2.217   -1.545
         H    -1.574    2.201    0.659
         H    -1.380   -2.051    0.720
         H    -0.276   -2.038   -1.472
    &END COORD
    &TOPOLOGY
      &CENTER_COORDINATES
      &END
    &END TOPOLOGY
 
   &KIND H
      ELEMENT H
      BASIS_SET 6-31G**
      POTENTIAL ALL
      LEBEDEV_GRID 200
      RADIAL_GRID 2000
   &END KIND
   &KIND C
      ELEMENT C
      BASIS_SET 6-31G**
      POTENTIAL ALL
      LEBEDEV_GRID 200
      RADIAL_GRID 2000
    &END KIND
   &KIND O
      ELEMENT O
      BASIS_SET 6-31G**
      POTENTIAL ALL
      LEBEDEV_GRID 200
      RADIAL_GRID 2000
    &END KIND
  &END SUBSYS
  &PROPERTIES
          &MOA
                  NFRG 2
                  LFRG 1 6
                  IFRG 7 1 2 3 4 5 6
                  NOMOA 1 2 3 4 5 6 7
                  &MO_CUBES
                          MO_LIST 1 2 3
                  &END
          &END MOA
  &END PROPERTIES
  STRESS_TENSOR NONE
&END FORCE_EVAL

&GLOBAL
  PROJECT ${PROJECT}
  RUN_TYPE ${RUNTYPE}
  PRINT_LEVEL MEDIUM
  EXTENDED_FFT_LENGTHS 
  PREFERRED_FFT_LIBRARY FFTSG
  FLUSH_SHOULD_FLUSH T   
&END GLOBAL

@if ${RESTART} == 1
&EXT_RESTART
  RESTART_FILE_NAME ${PROJECT}-1.restart
  RESTART_DEFAULT T
&END EXT_RESTART
@endif
