@SET PROJECT  p_
@SET RESFILE  p_
@SET XYZ   ./geometry.xyz
@SET RESTART 0 
@SET CELL_A 15
@SET CELL_B 15
@SET CELL_C 15
@SET RUNTYPE ENERGY
@SET EPSSCF 1.0E-09


&FORCE_EVAL
  METHOD QS
  &DFT  
     UKS .FALSE. 
     BASIS_SET_FILE_NAME  ./water.basis
     POTENTIAL_FILE_NAME  ./water.potential
     WFN_RESTART_FILE_NAME ./${RESFILE}-RESTART.wfn 
    &MGRID
      CUTOFF 600
      NGRIDS  10
      REL_CUTOFF 60
    &END MGRID
    &QS
       EPS_DEFAULT 1.0E-12
       METHOD GAPW
       MAP_CONSISTENT
       EXTRAPOLATION ASPC
       EPS_PGF_ORB 1E-10
    &END QS
     &SCF
       MAX_SCF    50
       EPS_SCF    ${EPSSCF}
       SCF_GUESS  RESTART
       &MIXING  T
       &END MIXING
       &DIAGONALIZATION
               ALGORITHM STANDARD
       &END
       &OUTER_SCF
         MAX_SCF 1
         EPS_SCF ${EPSSCF}
       &END
       &PRINT
         &RESTART
           &EACH
               QS_SCF 100
           &END
           ADD_LAST NUMERIC
         &END
       &END
     &END SCF
       &POISSON
         PERIODIC NONE
         PSOLVER  WAVELET
       &END POISSON
       &XC                        ! Parametes needed to compute the electronic exchange potential
         &XC_FUNCTIONAL NONE      ! No xc functional
         &END XC_FUNCTIONAL
         &HF                      ! Hartree Fock exchange. In this case is 100% (no fraction specified).
           &INTERACTION_POTENTIAL
                   POTENTIAL_TYPE COULOMB
           &END
         &END HF
       &END XC

   &PRINT
    &MULLIKEN ON
    &END
    &LOWDIN OFF
    &END
    &XRAY_DIFFRACTION_SPECTRUM OFF
    &END
    &PDOS OFF
      FILENAME PDOS-TMAA
      NLUMO -1
    &END PDOS
    &E_DENSITY_CUBE OFF
    &END
    &MO
           EIGENVALUES
           EIGENVECTORS
           CARTESIAN OFF
           FILENAME ./mos
          &EACH
           QS_SCF 0
          &END EACH
    &END MO
    &AO_MATRICES
          OVERLAP .TRUE.
          FILENAME ./overlapmatrix
          &EACH
           QS_SCF 0
          &END EACH
    &END AO_MATRICES
    &MO_CUBES                 ! Controls which MOs are written to cube-files.
      WRITE_CUBE FALSE
    &END MO_CUBES
    &TOT_DENSITY_CUBE OFF
    &END TOT_DENSITY_CUBE
   &END PRINT
  &END DFT

  &SUBSYS
    &CELL
            PERIODIC NONE
   A   ${CELL_A}        0.0000000000        0.0000000000
   B   0.0000000000       ${CELL_B}      0.0000000000
   C   0.0000000000        0.0000000000      ${CELL_C}
    &END CELL
    &TOPOLOGY
      CONNECTIVITY OFF
      COORD_FILE_NAME ${XYZ}
      COORDINATE      xyz
      &CENTER_COORDINATES 
      &END
    &END TOPOLOGY
 
   &KIND H
      ELEMENT H
      BASIS_SET 6-31G
      POTENTIAL ALL
      LEBEDEV_GRID 800
      RADIAL_GRID 2500
   &END KIND

   &KIND O
      ELEMENT O
      BASIS_SET 6-31G
      POTENTIAL ALL
      LEBEDEV_GRID 800
      RADIAL_GRID 2500
    &END KIND
  &END SUBSYS
  &PROPERTIES
          &MOA
                  NFRG 2 
                  LFRG 3 3 
                  IFRG 1 2 3 4 5 6
                  VEC_TOL 0.15
                  DEBUG_PRINT
                  &MO_CUBES
                          MO_LIST 19 20
                  &END
          &END MOA
  &END PROPERTIES
  STRESS_TENSOR NONE
&END FORCE_EVAL

&GLOBAL
  PROJECT ${PROJECT}
  RUN_TYPE ${RUNTYPE}
  PRINT_LEVEL MEDIUM
  EXTENDED_FFT_LENGTHS 
  FLUSH_SHOULD_FLUSH T   
&END GLOBAL

@if ${RESTART} == 1
&EXT_RESTART
  RESTART_FILE_NAME ${PROJECT}-1.restart
  RESTART_DEFAULT T
&END EXT_RESTART
@endif
